objective value:                                12265
t_x_0                                               1 	(obj:12)
t_x_2                                               1 	(obj:9)
t_x_3                                               1 	(obj:17)
t_x_5                                               1 	(obj:25)
t_x_7                                               1 	(obj:3)
t_x_9                                               1 	(obj:24)
t_x_10                                              1 	(obj:23)
t_x_12                                              1 	(obj:18)
t_x_15                                              1 	(obj:9)
t_x_18                                              1 	(obj:78)
t_x_19                                              1 	(obj:60)
t_x_21                                              1 	(obj:20)
t_x_22                                              1 	(obj:84)
t_x_24                                              1 	(obj:37)
t_x_25                                              1 	(obj:2)
t_x_26                                              1 	(obj:21)
t_x_27                                              1 	(obj:13)
t_x_28                                              1 	(obj:15)
t_x_29                                              1 	(obj:0)
t_x_32                                              1 	(obj:70)
t_x_34                                              1 	(obj:17)
t_x_38                                              1 	(obj:3)
t_x_42                                              1 	(obj:1)
t_x_46                                              1 	(obj:31)
t_x_48                                              1 	(obj:16)
t_x_53                                              1 	(obj:47)
t_x_56                                              1 	(obj:24)
t_x_58                                              1 	(obj:28)
t_x_59                                              1 	(obj:4)
t_x_60                                              1 	(obj:20)
t_x_61                                              1 	(obj:28)
t_x_62                                              1 	(obj:12)
t_x_64                                              1 	(obj:53)
t_x_66                                              1 	(obj:10)
t_x_69                                              1 	(obj:43)
t_x_76                                              1 	(obj:11)
t_x_80                                              1 	(obj:38)
t_x_81                                              1 	(obj:35)
t_x_84                                              1 	(obj:44)
t_x_85                                              1 	(obj:13)
t_x_87                                              1 	(obj:50)
t_x_92                                              1 	(obj:12)
t_x_93                                              1 	(obj:25)
t_x_97                                              1 	(obj:22)
t_x_98                                              1 	(obj:79)
t_x_99                                              1 	(obj:38)
t_x_104                                             1 	(obj:0)
t_x_108                                             1 	(obj:22)
t_x_112                                             1 	(obj:2)
t_x_118                                             1 	(obj:27)
t_x_121                                             1 	(obj:26)
t_x_135                                             1 	(obj:31)
t_x_137                                             1 	(obj:0)
t_x_141                                             1 	(obj:4)
t_x_145                                             1 	(obj:18)
t_x_147                                             1 	(obj:39)
t_x_153                                             1 	(obj:15)
t_x_154                                             1 	(obj:1)
t_x_160                                             1 	(obj:40)
t_x_161                                             1 	(obj:2)
t_x_162                                             1 	(obj:31)
t_x_167                                             1 	(obj:39)
t_x_170                                             1 	(obj:7)
t_x_171                                             1 	(obj:6)
t_x_175                                             1 	(obj:32)
t_x_178                                             1 	(obj:2)
t_x_179                                             1 	(obj:6)
t_x_181                                             1 	(obj:4)
t_x_182                                             1 	(obj:2)
t_x_189                                             1 	(obj:14)
t_x_190                                             1 	(obj:1)
t_x_195                                             1 	(obj:49)
t_x_197                                             1 	(obj:44)
t_x_200                                             1 	(obj:29)
t_x_201                                             1 	(obj:18)
t_x_202                                             1 	(obj:17)
t_x_203                                             1 	(obj:4)
t_x_206                                             1 	(obj:18)
t_x_209                                             1 	(obj:32)
t_x_213                                             1 	(obj:37)
t_x_215                                             1 	(obj:30)
t_x_218                                             1 	(obj:1)
t_x_221                                             1 	(obj:7)
t_x_222                                             1 	(obj:0)
t_x_223                                             1 	(obj:10)
t_x_227                                             1 	(obj:7)
t_x_231                                             1 	(obj:0)
t_x_235                                             1 	(obj:24)
t_x_237                                             1 	(obj:6)
t_x_239                                             1 	(obj:5)
t_x_241                                             1 	(obj:5)
t_x_244                                             1 	(obj:4)
t_x_247                                             1 	(obj:24)
t_x_249                                             1 	(obj:10)
t_x_253                                             1 	(obj:35)
t_x_260                                             1 	(obj:2)
t_x_262                                             1 	(obj:39)
t_x_269                                             1 	(obj:40)
t_x_271                                             1 	(obj:8)
t_x_275                                             1 	(obj:34)
t_x_276                                             1 	(obj:16)
t_x_280                                             1 	(obj:11)
t_x_281                                             1 	(obj:21)
t_x_283                                             1 	(obj:14)
t_x_285                                             1 	(obj:24)
t_x_286                                             1 	(obj:45)
t_x_291                                             1 	(obj:11)
t_x_295                                             1 	(obj:25)
t_x_298                                             1 	(obj:15)
t_x_304                                             1 	(obj:46)
t_x_307                                             1 	(obj:19)
t_x_311                                             1 	(obj:11)
t_x_314                                             1 	(obj:1)
t_x_319                                             1 	(obj:30)
t_x_320                                             1 	(obj:2)
t_x_325                                             1 	(obj:5)
t_x_327                                             1 	(obj:20)
t_x_331                                             1 	(obj:14)
t_x_332                                             1 	(obj:7)
t_x_337                                             1 	(obj:17)
t_x_339                                             1 	(obj:5)
t_x_344                                             1 	(obj:59)
t_x_348                                             1 	(obj:9)
t_x_350                                             1 	(obj:22)
t_x_351                                             1 	(obj:3)
t_x_362                                             1 	(obj:11)
t_x_364                                             1 	(obj:4)
t_x_365                                             1 	(obj:7)
t_x_368                                             1 	(obj:4)
t_x_374                                             1 	(obj:8)
t_x_376                                             1 	(obj:36)
t_x_378                                             1 	(obj:22)
t_x_379                                             1 	(obj:47)
t_x_389                                             1 	(obj:1)
t_x_390                                             1 	(obj:35)
t_x_391                                             1 	(obj:29)
t_x_392                                             1 	(obj:5)
t_x_400                                             1 	(obj:28)
t_x_401                                             1 	(obj:19)
t_x_402                                             1 	(obj:41)
t_x_403                                             1 	(obj:0)
t_x_404                                             1 	(obj:15)
t_x_412                                             1 	(obj:39)
t_x_413                                             1 	(obj:20)
t_x_421                                             1 	(obj:2)
t_x_428                                             1 	(obj:7)
t_x_431                                             1 	(obj:12)
t_x_438                                             1 	(obj:23)
t_x_439                                             1 	(obj:16)
t_x_442                                             1 	(obj:30)
t_x_443                                             1 	(obj:27)
t_x_447                                             1 	(obj:11)
t_x_453                                             1 	(obj:17)
t_x_456                                             1 	(obj:6)
t_x_457                                             1 	(obj:16)
t_x_459                                             1 	(obj:13)
t_x_462                                             1 	(obj:25)
t_x_469                                             1 	(obj:8)
t_x_470                                             1 	(obj:6)
t_x_477                                             1 	(obj:3)
t_x_479                                             1 	(obj:11)
t_x_480                                             1 	(obj:80)
t_x_481                                             1 	(obj:32)
t_x_485                                             1 	(obj:38)
t_x_486                                             1 	(obj:0)
t_x_488                                             1 	(obj:11)
t_x_490                                             1 	(obj:2)
t_x_491                                             1 	(obj:14)
t_x_493                                             1 	(obj:19)
t_x_495                                             1 	(obj:6)
t_x_496                                             1 	(obj:13)
t_x_499                                             1 	(obj:11)
t_x_500                                             1 	(obj:20)
t_x_501                                             1 	(obj:23)
t_x_503                                             1 	(obj:35)
t_x_505                                             1 	(obj:34)
t_x_509                                             1 	(obj:11)
t_x_512                                             1 	(obj:20)
t_x_519                                             1 	(obj:34)
t_x_520                                             1 	(obj:25)
t_x_525                                             1 	(obj:4)
t_x_531                                             1 	(obj:42)
t_x_535                                             1 	(obj:20)
t_x_541                                             1 	(obj:13)
t_x_546                                             1 	(obj:25)
t_x_548                                             1 	(obj:3)
t_x_552                                             1 	(obj:5)
t_x_553                                             1 	(obj:11)
t_x_554                                             1 	(obj:0)
t_x_572                                             1 	(obj:28)
t_x_574                                             1 	(obj:17)
t_x_576                                             1 	(obj:42)
t_x_579                                             1 	(obj:17)
t_x_594                                             1 	(obj:3)
t_x_595                                             1 	(obj:7)
t_x_600                                             1 	(obj:24)
t_x_601                                             1 	(obj:16)
t_x_603                                             1 	(obj:37)
t_x_604                                             1 	(obj:15)
t_x_606                                             1 	(obj:45)
t_x_607                                             1 	(obj:37)
t_x_608                                             1 	(obj:1)
t_x_611                                             1 	(obj:23)
t_x_612                                             1 	(obj:27)
t_x_613                                             1 	(obj:0)
t_x_620                                             1 	(obj:54)
t_x_624                                             1 	(obj:26)
t_x_626                                             1 	(obj:7)
t_x_628                                             1 	(obj:15)
t_x_629                                             1 	(obj:43)
t_x_632                                             1 	(obj:45)
t_x_633                                             1 	(obj:35)
t_x_637                                             1 	(obj:15)
t_x_643                                             1 	(obj:23)
t_x_648                                             1 	(obj:90)
t_x_650                                             1 	(obj:4)
t_x_652                                             1 	(obj:22)
t_x_653                                             1 	(obj:15)
t_x_671                                             1 	(obj:8)
t_x_673                                             1 	(obj:59)
t_x_678                                             1 	(obj:13)
t_x_679                                             1 	(obj:10)
t_x_680                                             1 	(obj:3)
t_x_682                                             1 	(obj:29)
t_x_689                                             1 	(obj:8)
t_x_707                                             1 	(obj:13)
t_x_709                                             1 	(obj:41)
t_x_710                                             1 	(obj:21)
t_x_712                                             1 	(obj:20)
t_x_714                                             1 	(obj:17)
t_x_715                                             1 	(obj:21)
t_x_724                                             1 	(obj:15)
t_x_731                                             1 	(obj:17)
t_x_737                                             1 	(obj:10)
t_x_740                                             1 	(obj:11)
t_x_741                                             1 	(obj:9)
t_x_742                                             1 	(obj:6)
t_x_748                                             1 	(obj:19)
t_x_751                                             1 	(obj:31)
t_x_752                                             1 	(obj:39)
t_x_755                                             1 	(obj:55)
t_x_759                                             1 	(obj:17)
t_x_761                                             1 	(obj:3)
t_x_764                                             1 	(obj:23)
t_x_775                                             1 	(obj:22)
t_x_782                                             1 	(obj:2)
t_x_784                                             1 	(obj:13)
t_x_786                                             1 	(obj:16)
t_x_788                                             1 	(obj:5)
t_x_791                                             1 	(obj:25)
t_x_793                                             1 	(obj:50)
t_x_800                                             1 	(obj:39)
t_x_802                                             1 	(obj:27)
t_x_808                                             1 	(obj:21)
t_x_809                                             1 	(obj:16)
t_x_821                                             1 	(obj:11)
t_x_822                                             1 	(obj:15)
t_x_824                                             1 	(obj:27)
t_x_828                                             1 	(obj:31)
t_x_837                                             1 	(obj:21)
t_x_838                                             1 	(obj:32)
t_x_839                                             1 	(obj:34)
t_x_842                                             1 	(obj:11)
t_x_843                                             1 	(obj:62)
t_x_851                                             1 	(obj:22)
t_x_852                                             1 	(obj:17)
t_x_857                                             1 	(obj:54)
t_x_860                                             1 	(obj:19)
t_x_867                                             1 	(obj:17)
t_x_869                                             1 	(obj:11)
t_x_870                                             1 	(obj:12)
t_x_877                                             1 	(obj:7)
t_x_884                                             1 	(obj:5)
t_x_887                                             1 	(obj:33)
t_x_889                                             1 	(obj:18)
t_x_896                                             1 	(obj:17)
t_x_901                                             1 	(obj:0)
t_x_902                                             1 	(obj:37)
t_x_914                                             1 	(obj:20)
t_x_915                                             1 	(obj:3)
t_x_917                                             1 	(obj:19)
t_x_919                                             1 	(obj:15)
t_x_920                                             1 	(obj:47)
t_x_924                                             1 	(obj:11)
t_x_925                                             1 	(obj:51)
t_x_935                                             1 	(obj:1)
t_x_938                                             1 	(obj:1)
t_x_945                                             1 	(obj:5)
t_x_947                                             1 	(obj:12)
t_x_949                                             1 	(obj:9)
t_x_951                                             1 	(obj:3)
t_x_954                                             1 	(obj:5)
t_x_955                                             1 	(obj:8)
t_x_956                                             1 	(obj:36)
t_x_957                                             1 	(obj:4)
t_x_958                                             1 	(obj:9)
t_x_959                                             1 	(obj:16)
t_x_961                                             1 	(obj:33)
t_x_962                                             1 	(obj:18)
t_x_963                                             1 	(obj:10)
t_x_964                                             1 	(obj:11)
t_x_970                                             1 	(obj:28)
t_x_973                                             1 	(obj:16)
t_x_974                                             1 	(obj:12)
t_x_978                                             1 	(obj:53)
t_x_981                                             1 	(obj:32)
t_x_982                                             1 	(obj:24)
t_x_983                                             1 	(obj:35)
t_x_988                                             1 	(obj:41)
t_x_993                                             1 	(obj:31)
t_x_995                                             1 	(obj:47)
t_x_998                                             1 	(obj:7)
t_x_999                                             1 	(obj:49)
t_x_1004                                            1 	(obj:1)
t_x_1011                                            1 	(obj:34)
t_x_1013                                            1 	(obj:7)
t_x_1015                                            1 	(obj:23)
t_x_1020                                            1 	(obj:13)
t_x_1022                                            1 	(obj:23)
t_x_1028                                            1 	(obj:31)
t_x_1031                                            1 	(obj:28)
t_x_1032                                            1 	(obj:29)
t_x_1041                                            1 	(obj:3)
t_x_1047                                            1 	(obj:5)
t_x_1049                                            1 	(obj:25)
t_x_1050                                            1 	(obj:16)
t_x_1051                                            1 	(obj:27)
t_x_1055                                            1 	(obj:8)
t_x_1056                                            1 	(obj:14)
t_x_1059                                            1 	(obj:18)
t_x_1068                                            1 	(obj:25)
t_x_1074                                            1 	(obj:42)
t_x_1076                                            1 	(obj:31)
t_x_1077                                            1 	(obj:13)
t_x_1086                                            1 	(obj:40)
t_x_1095                                            1 	(obj:9)
t_x_1096                                            1 	(obj:41)
t_x_1099                                            1 	(obj:49)
t_x_1106                                            1 	(obj:13)
t_x_1108                                            1 	(obj:15)
t_x_1109                                            1 	(obj:42)
t_x_1110                                            1 	(obj:8)
t_x_1115                                            1 	(obj:20)
t_x_1124                                            1 	(obj:52)
t_x_1125                                            1 	(obj:12)
t_x_1127                                            1 	(obj:1)
t_x_1129                                            1 	(obj:34)
t_x_1133                                            1 	(obj:5)
t_x_1135                                            1 	(obj:3)
t_x_1136                                            1 	(obj:25)
t_x_1137                                            1 	(obj:47)
t_x_1139                                            1 	(obj:9)
t_x_1140                                            1 	(obj:16)
t_x_1145                                            1 	(obj:20)
t_x_1151                                            1 	(obj:60)
t_x_1158                                            1 	(obj:4)
t_x_1161                                            1 	(obj:33)
t_x_1164                                            1 	(obj:14)
t_x_1167                                            1 	(obj:39)
t_x_1174                                            1 	(obj:27)
t_x_1175                                            1 	(obj:10)
t_x_1176                                            1 	(obj:42)
t_x_1183                                            1 	(obj:24)
t_x_1192                                            1 	(obj:15)
t_x_1193                                            1 	(obj:20)
t_x_1195                                            1 	(obj:24)
t_x_1198                                            1 	(obj:9)
t_x_1212                                            1 	(obj:9)
t_x_1224                                            1 	(obj:33)
t_x_1232                                            1 	(obj:7)
t_x_1235                                            1 	(obj:18)
t_x_1236                                            1 	(obj:29)
t_x_1238                                            1 	(obj:9)
t_x_1239                                            1 	(obj:26)
t_x_1245                                            1 	(obj:7)
t_x_1246                                            1 	(obj:10)
t_x_1247                                            1 	(obj:25)
t_x_1252                                            1 	(obj:1)
t_x_1258                                            1 	(obj:18)
t_x_1264                                            1 	(obj:14)
t_x_1272                                            1 	(obj:7)
t_x_1274                                            1 	(obj:39)
t_x_1278                                            1 	(obj:1)
t_x_1279                                            1 	(obj:16)
t_x_1280                                            1 	(obj:4)
t_x_1288                                            1 	(obj:6)
t_x_1292                                            1 	(obj:3)
t_x_1298                                            1 	(obj:42)
t_x_1301                                            1 	(obj:9)
t_x_1302                                            1 	(obj:19)
t_x_1303                                            1 	(obj:1)
t_x_1306                                            1 	(obj:51)
t_x_1310                                            1 	(obj:7)
t_x_1318                                            1 	(obj:16)
t_x_1321                                            1 	(obj:74)
t_x_1322                                            1 	(obj:3)
t_x_1324                                            1 	(obj:9)
t_x_1326                                            1 	(obj:27)
t_x_1332                                            1 	(obj:24)
t_x_1334                                            1 	(obj:31)
t_x_1336                                            1 	(obj:3)
t_x_1338                                            1 	(obj:10)
t_x_1343                                            1 	(obj:13)
t_x_1346                                            1 	(obj:1)
t_x_1354                                            1 	(obj:9)
t_x_1367                                            1 	(obj:4)
t_x_1375                                            1 	(obj:57)
t_x_1376                                            1 	(obj:7)
t_x_1379                                            1 	(obj:12)
t_x_1380                                            1 	(obj:15)
t_x_1383                                            1 	(obj:0)
t_x_1385                                            1 	(obj:15)
t_x_1389                                            1 	(obj:50)
t_x_1391                                            1 	(obj:36)
t_x_1392                                            1 	(obj:12)
t_x_1393                                            1 	(obj:7)
t_x_1395                                            1 	(obj:7)
t_x_1396                                            1 	(obj:8)
t_x_1398                                            1 	(obj:14)
t_x_1414                                            1 	(obj:28)
t_x_1416                                            1 	(obj:14)
t_x_1417                                            1 	(obj:14)
t_x_1420                                            1 	(obj:55)
t_x_1423                                            1 	(obj:47)
t_x_1426                                            1 	(obj:25)
t_x_1427                                            1 	(obj:2)
t_x_1435                                            1 	(obj:26)
t_x_1436                                            1 	(obj:6)
t_x_1445                                            1 	(obj:3)
t_x_1446                                            1 	(obj:7)
t_x_1449                                            1 	(obj:24)
t_x_1459                                            1 	(obj:47)
t_x_1460                                            1 	(obj:0)
t_x_1464                                            1 	(obj:22)
t_x_1465                                            1 	(obj:8)
t_x_1467                                            1 	(obj:29)
t_x_1469                                            1 	(obj:41)
t_x_1470                                            1 	(obj:5)
t_x_1471                                            1 	(obj:19)
t_x_1474                                            1 	(obj:31)
t_x_1480                                            1 	(obj:70)
t_x_1482                                            1 	(obj:21)
t_x_1484                                            1 	(obj:40)
t_x_1488                                            1 	(obj:18)
t_x_1499                                            1 	(obj:12)
t_x_1500                                            1 	(obj:9)
t_x_1502                                            1 	(obj:10)
t_x_1506                                            1 	(obj:23)
t_x_1507                                            1 	(obj:49)
t_x_1508                                            1 	(obj:25)
t_x_1510                                            1 	(obj:10)
t_x_1516                                            1 	(obj:26)
t_x_1517                                            1 	(obj:43)
t_x_1524                                            1 	(obj:52)
t_x_1525                                            1 	(obj:33)
t_x_1528                                            1 	(obj:21)
t_x_1531                                            1 	(obj:8)
t_x_1533                                            1 	(obj:14)
t_x_1536                                            1 	(obj:15)
t_x_1537                                            1 	(obj:11)
t_x_1547                                            1 	(obj:31)
t_x_1549                                            1 	(obj:36)
t_x_1550                                            1 	(obj:38)
t_x_1551                                            1 	(obj:18)
t_x_1556                                            1 	(obj:13)
t_x_1560                                            1 	(obj:17)
t_x_1564                                            1 	(obj:28)
t_x_1575                                            1 	(obj:54)
t_x_1590                                            1 	(obj:28)
t_x_1592                                            1 	(obj:22)
t_x_1599                                            1 	(obj:16)
t_x_1600                                            1 	(obj:4)
t_x_1603                                            1 	(obj:58)
t_x_1608                                            1 	(obj:3)
t_x_1614                                            1 	(obj:4)
t_x_1618                                            1 	(obj:3)
t_x_1619                                            1 	(obj:10)
t_x_1621                                            1 	(obj:27)
t_x_1639                                            1 	(obj:17)
t_x_1642                                            1 	(obj:5)
t_x_1643                                            1 	(obj:22)
t_x_1644                                            1 	(obj:58)
t_x_1647                                            1 	(obj:38)
t_x_1649                                            1 	(obj:7)
t_x_1653                                            1 	(obj:13)
t_x_1657                                            1 	(obj:10)
t_x_1660                                            1 	(obj:63)
t_x_1662                                            1 	(obj:7)
t_x_1663                                            1 	(obj:22)
t_x_1665                                            1 	(obj:56)
t_x_1668                                            1 	(obj:19)
t_x_1673                                            1 	(obj:28)
t_x_1674                                            1 	(obj:29)
t_x_1677                                            1 	(obj:22)
t_x_1679                                            1 	(obj:32)
t_x_1690                                            1 	(obj:20)
t_x_1693                                            1 	(obj:16)
t_x_1698                                            1 	(obj:13)
t_x_1699                                            1 	(obj:18)
t_x_1708                                            1 	(obj:52)
t_x_1716                                            1 	(obj:27)
t_x_1719                                            1 	(obj:15)
t_x_1721                                            1 	(obj:2)
t_x_1727                                            1 	(obj:0)
t_x_1730                                            1 	(obj:10)
t_x_1731                                            1 	(obj:2)
t_x_1734                                            1 	(obj:41)
t_x_1740                                            1 	(obj:1)
t_x_1747                                            1 	(obj:1)
t_x_1750                                            1 	(obj:15)
t_x_1753                                            1 	(obj:10)
t_x_1755                                            1 	(obj:27)
t_x_1757                                            1 	(obj:16)
t_x_1758                                            1 	(obj:15)
t_x_1760                                            1 	(obj:33)
t_x_1761                                            1 	(obj:38)
t_x_1769                                            1 	(obj:54)
t_x_1771                                            1 	(obj:37)
t_x_1772                                            1 	(obj:19)
t_x_1778                                            1 	(obj:28)
t_x_1780                                            1 	(obj:0)
t_x_1781                                            1 	(obj:13)
t_x_1782                                            1 	(obj:20)
t_x_1783                                            1 	(obj:20)
t_x_1784                                            1 	(obj:28)
t_x_1790                                            1 	(obj:40)
t_x_1798                                            1 	(obj:3)
t_x_1800                                            1 	(obj:55)
t_x_1802                                            1 	(obj:2)
t_x_1803                                            1 	(obj:3)
t_x_1810                                            1 	(obj:12)
t_x_1815                                            1 	(obj:70)
t_x_1817                                            1 	(obj:11)
t_x_1818                                            1 	(obj:43)
t_x_1824                                            1 	(obj:27)
t_x_1827                                            1 	(obj:2)
t_x_1829                                            1 	(obj:33)
t_x_1830                                            1 	(obj:3)
t_x_1835                                            1 	(obj:17)
t_x_1837                                            1 	(obj:34)
t_x_1839                                            1 	(obj:4)
t_x_1841                                            1 	(obj:16)
t_x_1842                                            1 	(obj:19)
t_x_1843                                            1 	(obj:9)
t_x_1845                                            1 	(obj:10)
t_x_1846                                            1 	(obj:9)
t_x_1847                                            1 	(obj:11)
t_x_1850                                            1 	(obj:43)
t_x_1851                                            1 	(obj:10)
t_x_1855                                            1 	(obj:4)
t_x_1856                                            1 	(obj:14)
t_x_1857                                            1 	(obj:30)
t_x_1859                                            1 	(obj:14)
t_x_1861                                            1 	(obj:7)
t_x_1862                                            1 	(obj:3)
t_x_1867                                            1 	(obj:2)
t_x_1869                                            1 	(obj:16)
t_x_1870                                            1 	(obj:24)
t_x_1873                                            1 	(obj:5)
t_x_1877                                            1 	(obj:10)
t_x_1880                                            1 	(obj:14)
t_x_1883                                            1 	(obj:70)
t_x_1885                                            1 	(obj:11)
t_x_1887                                            1 	(obj:28)
t_x_1889                                            1 	(obj:8)
t_x_1893                                            1 	(obj:0)
t_x_1895                                            1 	(obj:7)
t_x_1896                                            1 	(obj:13)
t_x_1898                                            1 	(obj:24)
t_x_1899                                            1 	(obj:4)
t_x_1900                                            1 	(obj:0)
t_x_1901                                            1 	(obj:73)
t_x_1902                                            1 	(obj:53)
t_x_1907                                            1 	(obj:12)
t_x_1909                                            1 	(obj:8)
t_x_1913                                            1 	(obj:43)
t_x_1923                                            1 	(obj:3)
t_x_1930                                            1 	(obj:3)
t_x_1932                                            1 	(obj:29)
t_x_1934                                            1 	(obj:5)
t_x_1936                                            1 	(obj:9)
t_x_1941                                            1 	(obj:4)
t_x_1944                                            1 	(obj:23)
t_x_1945                                            1 	(obj:2)
t_x_1951                                            1 	(obj:8)
t_x_1955                                            1 	(obj:16)
t_x_1956                                            1 	(obj:43)
t_x_1957                                            1 	(obj:6)
t_x_1958                                            1 	(obj:0)
t_x_1968                                            1 	(obj:10)
t_x_1980                                            1 	(obj:21)
t_x_1981                                            1 	(obj:46)
t_x_1984                                            1 	(obj:23)
t_x_1986                                            1 	(obj:1)
t_x_1987                                            1 	(obj:35)
t_x_1991                                            1 	(obj:6)
t_x_1992                                            1 	(obj:10)
t_x_1994                                            1 	(obj:9)
t_x_1999                                            1 	(obj:2)
